p cnf 430 1488
-191 5 0
-191 -1 0
-191 6 0
-191 77 0
-191 184 0
191 -5 1 -6 -77 -184 0
-192 146 0
-192 -179 0
-192 140 0
-192 34 0
-192 -44 0
192 -146 179 -140 -34 44 0
-193 -183 0
-193 96 0
-193 -187 0
-193 -85 0
-193 -163 0
193 183 -96 187 85 163 0
-194 174 0
-194 77 0
-194 -71 0
-194 -59 0
-194 -27 0
194 -174 -77 71 59 27 0
-195 168 0
-195 164 0
-195 73 0
-195 173 0
-195 12 0
195 -168 -164 -73 -173 -12 0
191 192 193 194 195 0
-196 -94 0
-196 93 0
-196 -169 0
-196 -28 0
-196 121 0
196 94 -93 169 28 -121 0
-197 -125 0
-197 27 0
-197 -72 0
-197 120 0
-197 81 0
197 125 -27 72 -120 -81 0
-198 138 0
-198 -114 0
-198 -129 0
-198 -63 0
-198 -174 0
198 -138 114 129 63 174 0
-199 -78 0
-199 -133 0
-199 -24 0
-199 115 0
-199 -101 0
199 78 133 24 -115 101 0
-200 173 0
-200 -126 0
-200 -129 0
-200 76 0
-200 64 0
200 -173 126 129 -76 -64 0
196 197 198 199 200 0
-201 88 0
-201 -66 0
-201 168 0
-201 -118 0
-201 108 0
201 -88 66 -168 118 -108 0
-202 -49 0
-202 -89 0
-202 -12 0
-202 -85 0
-202 178 0
202 49 89 12 85 -178 0
-203 -38 0
-203 143 0
-203 46 0
-203 -61 0
-203 71 0
203 38 -143 -46 61 -71 0
-204 165 0
-204 161 0
-204 63 0
-204 26 0
-204 24 0
204 -165 -161 -63 -26 -24 0
-205 -25 0
-205 150 0
-205 96 0
-205 139 0
-205 99 0
205 25 -150 -96 -139 -99 0
201 202 203 204 205 0
-206 62 0
-206 35 0
-206 28 0
-206 157 0
-206 -87 0
206 -62 -35 -28 -157 87 0
-207 -119 0
-207 -42 0
-207 -49 0
-207 -15 0
-207 163 0
207 119 42 49 15 -163 0
-208 75 0
-208 124 0
-208 162 0
-208 154 0
-208 41 0
208 -75 -124 -162 -154 -41 0
-209 -44 0
-209 -150 0
-209 162 0
-209 171 0
-209 -1 0
209 44 150 -162 -171 1 0
-210 169 0
-210 22 0
-210 -30 0
-210 -167 0
-210 -159 0
210 -169 -22 30 167 159 0
206 207 208 209 210 0
-211 145 0
-211 84 0
-211 38 0
-211 119 0
-211 -174 0
211 -145 -84 -38 -119 174 0
-212 152 0
-212 -175 0
-212 -164 0
-212 100 0
-212 174 0
212 -152 175 164 -100 -174 0
-213 -86 0
-213 -141 0
-213 147 0
-213 161 0
-213 66 0
213 86 141 -147 -161 -66 0
-214 -69 0
-214 -190 0
-214 -185 0
-214 140 0
-214 5 0
214 69 190 185 -140 -5 0
-215 -125 0
-215 60 0
-215 -51 0
-215 36 0
-215 -64 0
215 125 -60 51 -36 64 0
211 212 213 214 215 0
-216 131 0
-216 -83 0
-216 127 0
-216 -184 0
-216 -95 0
216 -131 83 -127 184 95 0
-217 172 0
-217 -113 0
-217 -158 0
-217 -144 0
-217 104 0
217 -172 113 158 144 -104 0
-218 145 0
-218 64 0
-218 -27 0
-218 -170 0
-218 -174 0
218 -145 -64 27 170 174 0
-219 32 0
-219 -99 0
-219 -24 0
-219 151 0
-219 146 0
219 -32 99 24 -151 -146 0
-220 165 0
-220 19 0
-220 31 0
-220 -24 0
-220 -73 0
220 -165 -19 -31 24 73 0
216 217 218 219 220 0
-221 -58 0
-221 12 0
-221 177 0
-221 70 0
-221 -183 0
221 58 -12 -177 -70 183 0
-222 -6 0
-222 33 0
-222 -18 0
-222 -94 0
-222 -96 0
222 6 -33 18 94 96 0
-223 105 0
-223 171 0
-223 -39 0
-223 118 0
-223 -45 0
223 -105 -171 39 -118 45 0
-224 155 0
-224 -64 0
-224 -87 0
-224 143 0
-224 126 0
224 -155 64 87 -143 -126 0
-225 23 0
-225 169 0
-225 42 0
-225 -38 0
-225 188 0
225 -23 -169 -42 38 -188 0
221 222 223 224 225 0
-226 -20 0
-226 79 0
-226 -73 0
-226 168 0
-226 164 0
226 20 -79 73 -168 -164 0
-227 183 0
-227 -83 0
-227 125 0
-227 -9 0
-227 114 0
227 -183 83 -125 9 -114 0
-228 -7 0
-228 33 0
-228 150 0
-228 171 0
-228 -151 0
228 7 -33 -150 -171 151 0
-229 -97 0
-229 -50 0
-229 35 0
-229 178 0
-229 47 0
229 97 50 -35 -178 -47 0
-230 -153 0
-230 -150 0
-230 -96 0
-230 -133 0
-230 29 0
230 153 150 96 133 -29 0
226 227 228 229 230 0
-231 -154 0
-231 155 0
-231 123 0
-231 125 0
-231 -151 0
231 154 -155 -123 -125 151 0
-232 126 0
-232 112 0
-232 -88 0
-232 168 0
-232 86 0
232 -126 -112 88 -168 -86 0
-233 -17 0
-233 80 0
-233 56 0
-233 -73 0
-233 -38 0
233 17 -80 -56 73 38 0
-234 149 0
-234 -127 0
-234 -16 0
-234 -112 0
-234 125 0
234 -149 127 16 112 -125 0
-235 -90 0
-235 -26 0
-235 -55 0
-235 -73 0
-235 -62 0
235 90 26 55 73 62 0
231 232 233 234 235 0
-236 -38 0
-236 -45 0
-236 47 0
-236 15 0
-236 113 0
236 38 45 -47 -15 -113 0
-237 181 0
-237 -171 0
-237 -81 0
-237 91 0
-237 83 0
237 -181 171 81 -91 -83 0
-238 -14 0
-238 -85 0
-238 77 0
-238 130 0
-238 -147 0
238 14 85 -77 -130 147 0
-239 158 0
-239 -100 0
-239 -112 0
-239 68 0
-239 -123 0
239 -158 100 112 -68 123 0
-240 21 0
-240 -58 0
-240 -190 0
-240 -92 0
-240 145 0
240 -21 58 190 92 -145 0
236 237 238 239 240 0
-241 3 0
-241 -70 0
-241 -23 0
-241 98 0
-241 109 0
241 -3 70 23 -98 -109 0
-242 134 0
-242 -112 0
-242 -51 0
-242 69 0
-242 -85 0
242 -134 112 51 -69 85 0
-243 118 0
-243 -150 0
-243 76 0
-243 -12 0
-243 3 0
243 -118 150 -76 12 -3 0
-244 -119 0
-244 164 0
-244 -171 0
-244 -160 0
-244 -37 0
244 119 -164 171 160 37 0
-245 -188 0
-245 36 0
-245 -38 0
-245 -170 0
-245 53 0
245 188 -36 38 170 -53 0
241 242 243 244 245 0
-246 182 0
-246 124 0
-246 20 0
-246 -125 0
-246 3 0
246 -182 -124 -20 125 -3 0
-247 -84 0
-247 -19 0
-247 -173 0
-247 116 0
-247 77 0
247 84 19 173 -116 -77 0
-248 89 0
-248 148 0
-248 108 0
-248 16 0
-248 186 0
248 -89 -148 -108 -16 -186 0
-249 177 0
-249 -110 0
-249 -130 0
-249 -111 0
-249 36 0
249 -177 110 130 111 -36 0
-250 46 0
-250 167 0
-250 -42 0
-250 68 0
-250 -38 0
250 -46 -167 42 -68 38 0
246 247 248 249 250 0
-251 18 0
-251 -34 0
-251 39 0
-251 121 0
-251 11 0
251 -18 34 -39 -121 -11 0
-252 31 0
-252 165 0
-252 100 0
-252 36 0
-252 76 0
252 -31 -165 -100 -36 -76 0
-253 -29 0
-253 -154 0
-253 -31 0
-253 131 0
-253 -84 0
253 29 154 31 -131 84 0
-254 143 0
-254 -151 0
-254 51 0
-254 -94 0
-254 97 0
254 -143 151 -51 94 -97 0
-255 -62 0
-255 97 0
-255 119 0
-255 52 0
-255 -169 0
255 62 -97 -119 -52 169 0
251 252 253 254 255 0
-256 72 0
-256 -160 0
-256 75 0
-256 -11 0
-256 -133 0
256 -72 160 -75 11 133 0
-257 63 0
-257 -174 0
-257 176 0
-257 -120 0
-257 86 0
257 -63 174 -176 120 -86 0
-258 115 0
-258 -131 0
-258 103 0
-258 139 0
-258 -88 0
258 -115 131 -103 -139 88 0
-259 50 0
-259 -189 0
-259 -13 0
-259 152 0
-259 42 0
259 -50 189 13 -152 -42 0
-260 -187 0
-260 8 0
-260 -160 0
-260 -15 0
-260 -149 0
260 187 -8 160 15 149 0
256 257 258 259 260 0
-261 -93 0
-261 75 0
-261 114 0
-261 -29 0
-261 -144 0
261 93 -75 -114 29 144 0
-262 -180 0
-262 64 0
-262 33 0
-262 96 0
-262 -8 0
262 180 -64 -33 -96 8 0
-263 -73 0
-263 78 0
-263 107 0
-263 108 0
-263 35 0
263 73 -78 -107 -108 -35 0
-264 57 0
-264 141 0
-264 80 0
-264 -188 0
-264 -167 0
264 -57 -141 -80 188 167 0
-265 58 0
-265 189 0
-265 -47 0
-265 -70 0
-265 -57 0
265 -58 -189 47 70 57 0
261 262 263 264 265 0
-266 92 0
-266 114 0
-266 54 0
-266 -6 0
-266 127 0
266 -92 -114 -54 6 -127 0
-267 101 0
-267 -4 0
-267 166 0
-267 143 0
-267 3 0
267 -101 4 -166 -143 -3 0
-268 11 0
-268 181 0
-268 -164 0
-268 -172 0
-268 -18 0
268 -11 -181 164 172 18 0
-269 -166 0
-269 185 0
-269 -4 0
-269 125 0
-269 -7 0
269 166 -185 4 -125 7 0
-270 135 0
-270 -102 0
-270 -90 0
-270 -20 0
-270 -94 0
270 -135 102 90 20 94 0
266 267 268 269 270 0
-271 175 0
-271 -170 0
-271 20 0
-271 -114 0
-271 7 0
271 -175 170 -20 114 -7 0
-272 -185 0
-272 -4 0
-272 -22 0
-272 146 0
-272 -8 0
272 185 4 22 -146 8 0
-273 121 0
-273 189 0
-273 168 0
-273 141 0
-273 -75 0
273 -121 -189 -168 -141 75 0
-274 23 0
-274 185 0
-274 60 0
-274 18 0
-274 -103 0
274 -23 -185 -60 -18 103 0
-275 -19 0
-275 -56 0
-275 -103 0
-275 17 0
-275 -140 0
275 19 56 103 -17 140 0
271 272 273 274 275 0
-276 -189 0
-276 100 0
-276 36 0
-276 -50 0
-276 83 0
276 189 -100 -36 50 -83 0
-277 -183 0
-277 184 0
-277 100 0
-277 190 0
-277 15 0
277 183 -184 -100 -190 -15 0
-278 172 0
-278 -57 0
-278 -109 0
-278 93 0
-278 -167 0
278 -172 57 109 -93 167 0
-279 127 0
-279 -118 0
-279 35 0
-279 -45 0
-279 -32 0
279 -127 118 -35 45 32 0
-280 -118 0
-280 177 0
-280 57 0
-280 -96 0
-280 -40 0
280 118 -177 -57 96 40 0
276 277 278 279 280 0
-281 53 0
-281 -156 0
-281 127 0
-281 30 0
-281 185 0
281 -53 156 -127 -30 -185 0
-282 -34 0
-282 42 0
-282 -85 0
-282 -15 0
-282 -51 0
282 34 -42 85 15 51 0
-283 -145 0
-283 -75 0
-283 -89 0
-283 -31 0
-283 -147 0
283 145 75 89 31 147 0
-284 -170 0
-284 -112 0
-284 51 0
-284 -64 0
-284 -110 0
284 170 112 -51 64 110 0
-285 -169 0
-285 -137 0
-285 8 0
-285 150 0
-285 -51 0
285 169 137 -8 -150 51 0
281 282 283 284 285 0
-286 -54 0
-286 -43 0
-286 22 0
-286 -141 0
-286 -166 0
286 54 43 -22 141 166 0
-287 -64 0
-287 -29 0
-287 -131 0
-287 -43 0
-287 134 0
287 64 29 131 43 -134 0
-288 -78 0
-288 54 0
-288 -151 0
-288 105 0
-288 96 0
288 78 -54 151 -105 -96 0
-289 -146 0
-289 189 0
-289 -96 0
-289 45 0
-289 60 0
289 146 -189 96 -45 -60 0
-290 -25 0
-290 -108 0
-290 40 0
-290 178 0
-290 65 0
290 25 108 -40 -178 -65 0
286 287 288 289 290 0
-291 -78 0
-291 169 0
-291 -9 0
-291 22 0
-291 174 0
291 78 -169 9 -22 -174 0
-292 -110 0
-292 183 0
-292 42 0
-292 -82 0
-292 -19 0
292 110 -183 -42 82 19 0
-293 81 0
-293 42 0
-293 144 0
-293 -152 0
-293 147 0
293 -81 -42 -144 152 -147 0
-294 -175 0
-294 -146 0
-294 -75 0
-294 12 0
-294 110 0
294 175 146 75 -12 -110 0
-295 29 0
-295 150 0
-295 -143 0
-295 44 0
-295 -61 0
295 -29 -150 143 -44 61 0
291 292 293 294 295 0
-296 5 0
-296 -47 0
-296 -65 0
-296 40 0
-296 80 0
296 -5 47 65 -40 -80 0
-297 -66 0
-297 157 0
-297 -154 0
-297 -132 0
-297 56 0
297 66 -157 154 132 -56 0
-298 -12 0
-298 -38 0
-298 -84 0
-298 145 0
-298 -82 0
298 12 38 84 -145 82 0
-299 -56 0
-299 -63 0
-299 166 0
-299 -183 0
-299 16 0
299 56 63 -166 183 -16 0
-300 66 0
-300 94 0
-300 -17 0
-300 -83 0
-300 -28 0
300 -66 -94 17 83 28 0
296 297 298 299 300 0
-301 166 0
-301 -143 0
-301 -142 0
-301 -53 0
-301 -144 0
301 -166 143 142 53 144 0
-302 -46 0
-302 -106 0
-302 -100 0
-302 -91 0
-302 94 0
302 46 106 100 91 -94 0
-303 -3 0
-303 187 0
-303 136 0
-303 -119 0
-303 -170 0
303 3 -187 -136 119 170 0
-304 187 0
-304 -77 0
-304 31 0
-304 -9 0
-304 160 0
304 -187 77 -31 9 -160 0
-305 12 0
-305 -180 0
-305 157 0
-305 -78 0
-305 167 0
305 -12 180 -157 78 -167 0
301 302 303 304 305 0
-306 124 0
-306 146 0
-306 -28 0
-306 140 0
-306 74 0
306 -124 -146 28 -140 -74 0
-307 -173 0
-307 -39 0
-307 -74 0
-307 183 0
-307 4 0
307 173 39 74 -183 -4 0
-308 -95 0
-308 102 0
-308 -132 0
-308 -178 0
-308 -56 0
308 95 -102 132 178 56 0
-309 -167 0
-309 184 0
-309 179 0
-309 6 0
-309 147 0
309 167 -184 -179 -6 -147 0
-310 -63 0
-310 -173 0
-310 64 0
-310 -84 0
-310 -121 0
310 63 173 -64 84 121 0
306 307 308 309 310 0
-311 -49 0
-311 63 0
-311 72 0
-311 -188 0
-311 -61 0
311 49 -63 -72 188 61 0
-312 -29 0
-312 99 0
-312 11 0
-312 7 0
-312 -151 0
312 29 -99 -11 -7 151 0
-313 -184 0
-313 9 0
-313 -150 0
-313 -42 0
-313 -182 0
313 184 -9 150 42 182 0
-314 46 0
-314 -144 0
-314 -3 0
-314 160 0
-314 97 0
314 -46 144 3 -160 -97 0
-315 105 0
-315 -114 0
-315 164 0
-315 97 0
-315 -104 0
315 -105 114 -164 -97 104 0
311 312 313 314 315 0
-316 -34 0
-316 -148 0
-316 74 0
-316 -27 0
-316 119 0
316 34 148 -74 27 -119 0
-317 -172 0
-317 99 0
-317 122 0
-317 -167 0
-317 23 0
317 172 -99 -122 167 -23 0
-318 -23 0
-318 50 0
-318 -45 0
-318 10 0
-318 46 0
318 23 -50 45 -10 -46 0
-319 140 0
-319 -14 0
-319 104 0
-319 -175 0
-319 -174 0
319 -140 14 -104 175 174 0
-320 40 0
-320 36 0
-320 -170 0
-320 18 0
-320 -167 0
320 -40 -36 170 -18 167 0
316 317 318 319 320 0
-321 -3 0
-321 -190 0
-321 -90 0
-321 157 0
-321 138 0
321 3 190 90 -157 -138 0
-322 3 0
-322 -148 0
-322 -12 0
-322 -117 0
-322 150 0
322 -3 148 12 117 -150 0
-323 82 0
-323 -176 0
-323 8 0
-323 -179 0
-323 -56 0
323 -82 176 -8 179 56 0
-324 51 0
-324 111 0
-324 -64 0
-324 135 0
-324 -183 0
324 -51 -111 64 -135 183 0
-325 132 0
-325 -120 0
-325 -106 0
-325 -11 0
-325 -66 0
325 -132 120 106 11 66 0
321 322 323 324 325 0
-326 -133 0
-326 15 0
-326 -31 0
-326 140 0
-326 150 0
326 133 -15 31 -140 -150 0
-327 40 0
-327 -92 0
-327 160 0
-327 -81 0
-327 150 0
327 -40 92 -160 81 -150 0
-328 156 0
-328 -106 0
-328 -7 0
-328 -134 0
-328 59 0
328 -156 106 7 134 -59 0
-329 97 0
-329 117 0
-329 19 0
-329 127 0
-329 -56 0
329 -97 -117 -19 -127 56 0
-330 -67 0
-330 -33 0
-330 -83 0
-330 91 0
-330 34 0
330 67 33 83 -91 -34 0
326 327 328 329 330 0
-331 109 0
-331 78 0
-331 -169 0
-331 -84 0
-331 -61 0
331 -109 -78 169 84 61 0
-332 -138 0
-332 -64 0
-332 42 0
-332 155 0
-332 126 0
332 138 64 -42 -155 -126 0
-333 -75 0
-333 116 0
-333 181 0
-333 -111 0
-333 -67 0
333 75 -116 -181 111 67 0
-334 -106 0
-334 127 0
-334 101 0
-334 -93 0
-334 -10 0
334 106 -127 -101 93 10 0
-335 -71 0
-335 -184 0
-335 105 0
-335 108 0
-335 -79 0
335 71 184 -105 -108 79 0
331 332 333 334 335 0
-336 -96 0
-336 156 0
-336 -136 0
-336 -161 0
-336 131 0
336 96 -156 136 161 -131 0
-337 -33 0
-337 43 0
-337 -56 0
-337 46 0
-337 -184 0
337 33 -43 56 -46 184 0
-338 -73 0
-338 -180 0
-338 -112 0
-338 -87 0
-338 168 0
338 73 180 112 87 -168 0
-339 -67 0
-339 80 0
-339 57 0
-339 113 0
-339 188 0
339 67 -80 -57 -113 -188 0
-340 -49 0
-340 -144 0
-340 66 0
-340 -110 0
-340 -78 0
340 49 144 -66 110 78 0
336 337 338 339 340 0
-341 84 0
-341 167 0
-341 -162 0
-341 -62 0
-341 30 0
341 -84 -167 162 62 -30 0
-342 -146 0
-342 -57 0
-342 -142 0
-342 2 0
-342 156 0
342 146 57 142 -2 -156 0
-343 127 0
-343 184 0
-343 170 0
-343 138 0
-343 -7 0
343 -127 -184 -170 -138 7 0
-344 155 0
-344 -103 0
-344 27 0
-344 -54 0
-344 4 0
344 -155 103 -27 54 -4 0
-345 149 0
-345 146 0
-345 -21 0
-345 -39 0
-345 148 0
345 -149 -146 21 39 -148 0
341 342 343 344 345 0
-346 63 0
-346 57 0
-346 130 0
-346 80 0
-346 113 0
346 -63 -57 -130 -80 -113 0
-347 90 0
-347 -52 0
-347 163 0
-347 136 0
-347 -6 0
347 -90 52 -163 -136 6 0
-348 -182 0
-348 146 0
-348 -5 0
-348 161 0
-348 82 0
348 182 -146 5 -161 -82 0
-349 103 0
-349 -171 0
-349 -113 0
-349 -23 0
-349 149 0
349 -103 171 113 23 -149 0
-350 -91 0
-350 -74 0
-350 -15 0
-350 -168 0
-350 -59 0
350 91 74 15 168 59 0
346 347 348 349 350 0
-351 39 0
-351 178 0
-351 -123 0
-351 1 0
-351 -82 0
351 -39 -178 123 -1 82 0
-352 -181 0
-352 -114 0
-352 77 0
-352 69 0
-352 -137 0
352 181 114 -77 -69 137 0
-353 92 0
-353 -135 0
-353 -183 0
-353 36 0
-353 -113 0
353 -92 135 183 -36 113 0
-354 -58 0
-354 -14 0
-354 119 0
-354 -30 0
-354 149 0
354 58 14 -119 30 -149 0
-355 49 0
-355 -30 0
-355 -57 0
-355 150 0
-355 184 0
355 -49 30 57 -150 -184 0
351 352 353 354 355 0
-356 41 0
-356 134 0
-356 -106 0
-356 46 0
-356 -76 0
356 -41 -134 106 -46 76 0
-357 82 0
-357 142 0
-357 125 0
-357 31 0
-357 -162 0
357 -82 -142 -125 -31 162 0
-358 -123 0
-358 166 0
-358 12 0
-358 174 0
-358 122 0
358 123 -166 -12 -174 -122 0
-359 -59 0
-359 139 0
-359 -87 0
-359 82 0
-359 -142 0
359 59 -139 87 -82 142 0
-360 136 0
-360 49 0
-360 172 0
-360 69 0
-360 55 0
360 -136 -49 -172 -69 -55 0
356 357 358 359 360 0
-361 47 0
-361 -128 0
-361 21 0
-361 -168 0
-361 -82 0
361 -47 128 -21 168 82 0
-362 106 0
-362 1 0
-362 -131 0
-362 -124 0
-362 -167 0
362 -106 -1 131 124 167 0
-363 100 0
-363 -81 0
-363 150 0
-363 24 0
-363 -149 0
363 -100 81 -150 -24 149 0
-364 62 0
-364 4 0
-364 -14 0
-364 -161 0
-364 -190 0
364 -62 -4 14 161 190 0
-365 -25 0
-365 -180 0
-365 41 0
-365 -155 0
-365 134 0
365 25 180 -41 155 -134 0
361 362 363 364 365 0
-366 161 0
-366 -8 0
-366 -128 0
-366 -88 0
-366 183 0
366 -161 8 128 88 -183 0
-367 87 0
-367 -143 0
-367 160 0
-367 67 0
-367 -73 0
367 -87 143 -160 -67 73 0
-368 1 0
-368 -57 0
-368 -101 0
-368 64 0
-368 70 0
368 -1 57 101 -64 -70 0
-369 6 0
-369 174 0
-369 97 0
-369 -154 0
-369 170 0
369 -6 -174 -97 154 -170 0
-370 50 0
-370 -144 0
-370 73 0
-370 174 0
-370 28 0
370 -50 144 -73 -174 -28 0
366 367 368 369 370 0
-371 -11 0
-371 23 0
-371 34 0
-371 111 0
-371 41 0
371 11 -23 -34 -111 -41 0
-372 -43 0
-372 -182 0
-372 103 0
-372 10 0
-372 163 0
372 43 182 -103 -10 -163 0
-373 173 0
-373 -55 0
-373 -167 0
-373 -122 0
-373 101 0
373 -173 55 167 122 -101 0
-374 -183 0
-374 -170 0
-374 89 0
-374 -98 0
-374 58 0
374 183 170 -89 98 -58 0
-375 91 0
-375 158 0
-375 -62 0
-375 164 0
-375 48 0
375 -91 -158 62 -164 -48 0
371 372 373 374 375 0
-376 27 0
-376 147 0
-376 49 0
-376 -182 0
-376 140 0
376 -27 -147 -49 182 -140 0
-377 40 0
-377 39 0
-377 68 0
-377 140 0
-377 -154 0
377 -40 -39 -68 -140 154 0
-378 -36 0
-378 56 0
-378 -116 0
-378 14 0
-378 91 0
378 36 -56 116 -14 -91 0
-379 -111 0
-379 78 0
-379 -178 0
-379 18 0
-379 17 0
379 111 -78 178 -18 -17 0
-380 168 0
-380 -114 0
-380 -118 0
-380 -162 0
-380 -37 0
380 -168 114 118 162 37 0
376 377 378 379 380 0
-381 53 0
-381 7 0
-381 -79 0
-381 60 0
-381 -96 0
381 -53 -7 79 -60 96 0
-382 59 0
-382 44 0
-382 177 0
-382 -117 0
-382 -43 0
382 -59 -44 -177 117 43 0
-383 -132 0
-383 -31 0
-383 -160 0
-383 -70 0
-383 -87 0
383 132 31 160 70 87 0
-384 119 0
-384 20 0
-384 -88 0
-384 77 0
-384 -1 0
384 -119 -20 88 -77 1 0
-385 25 0
-385 -146 0
-385 -73 0
-385 37 0
-385 -165 0
385 -25 146 73 -37 165 0
381 382 383 384 385 0
-386 19 0
-386 -140 0
-386 -84 0
-386 155 0
-386 100 0
386 -19 140 84 -155 -100 0
-387 -64 0
-387 112 0
-387 183 0
-387 149 0
-387 18 0
387 64 -112 -183 -149 -18 0
-388 33 0
-388 29 0
-388 20 0
-388 50 0
-388 -58 0
388 -33 -29 -20 -50 58 0
-389 75 0
-389 -126 0
-389 -165 0
-389 111 0
-389 23 0
389 -75 126 165 -111 -23 0
-390 -86 0
-390 -145 0
-390 155 0
-390 -182 0
-390 -22 0
390 86 145 -155 182 22 0
386 387 388 389 390 0
-391 -117 0
-391 -177 0
-391 -120 0
-391 -49 0
-391 133 0
391 117 177 120 49 -133 0
-392 -79 0
-392 -169 0
-392 38 0
-392 71 0
-392 -53 0
392 79 169 -38 -71 53 0
-393 155 0
-393 80 0
-393 46 0
-393 -53 0
-393 -156 0
393 -155 -80 -46 53 156 0
-394 -166 0
-394 -55 0
-394 38 0
-394 91 0
-394 -143 0
394 166 55 -38 -91 143 0
-395 30 0
-395 -132 0
-395 -35 0
-395 -66 0
-395 103 0
395 -30 132 35 66 -103 0
391 392 393 394 395 0
-396 88 0
-396 -124 0
-396 -170 0
-396 44 0
-396 -161 0
396 -88 124 170 -44 161 0
-397 174 0
-397 -25 0
-397 58 0
-397 -36 0
-397 43 0
397 -174 25 -58 36 -43 0
-398 -118 0
-398 -126 0
-398 160 0
-398 74 0
-398 162 0
398 118 126 -160 -74 -162 0
-399 -73 0
-399 31 0
-399 -34 0
-399 173 0
-399 -85 0
399 73 -31 34 -173 85 0
-400 -122 0
-400 -15 0
-400 76 0
-400 129 0
-400 -37 0
400 122 15 -76 -129 37 0
396 397 398 399 400 0
-401 -167 0
-401 -78 0
-401 -145 0
-401 -93 0
-401 8 0
401 167 78 145 93 -8 0
-402 94 0
-402 83 0
-402 -58 0
-402 -96 0
-402 -39 0
402 -94 -83 58 96 39 0
-403 143 0
-403 186 0
-403 -56 0
-403 190 0
-403 173 0
403 -143 -186 56 -190 -173 0
-404 114 0
-404 -140 0
-404 -32 0
-404 -98 0
-404 59 0
404 -114 140 32 98 -59 0
-405 -13 0
-405 84 0
-405 133 0
-405 77 0
-405 -155 0
405 13 -84 -133 -77 155 0
401 402 403 404 405 0
-406 -189 0
-406 25 0
-406 -94 0
-406 -107 0
-406 -61 0
406 189 -25 94 107 61 0
-407 -23 0
-407 -93 0
-407 50 0
-407 -18 0
-407 131 0
407 23 93 -50 18 -131 0
-408 -83 0
-408 35 0
-408 14 0
-408 52 0
-408 79 0
408 83 -35 -14 -52 -79 0
-409 -70 0
-409 -177 0
-409 152 0
-409 165 0
-409 139 0
409 70 177 -152 -165 -139 0
-410 -141 0
-410 25 0
-410 -153 0
-410 158 0
-410 108 0
410 141 -25 153 -158 -108 0
406 407 408 409 410 0
-411 -182 0
-411 101 0
-411 93 0
-411 92 0
-411 -139 0
411 182 -101 -93 -92 139 0
-412 -119 0
-412 -88 0
-412 -7 0
-412 -96 0
-412 -89 0
412 119 88 7 96 89 0
-413 -93 0
-413 -42 0
-413 -168 0
-413 51 0
-413 -160 0
413 93 42 168 -51 160 0
-414 4 0
-414 -165 0
-414 132 0
-414 125 0
-414 -22 0
414 -4 165 -132 -125 22 0
-415 120 0
-415 184 0
-415 95 0
-415 -109 0
-415 -49 0
415 -120 -184 -95 109 49 0
411 412 413 414 415 0
-416 -92 0
-416 74 0
-416 -151 0
-416 -39 0
-416 27 0
416 92 -74 151 39 -27 0
-417 -117 0
-417 -119 0
-417 182 0
-417 -181 0
-417 143 0
417 117 119 -182 181 -143 0
-418 -133 0
-418 149 0
-418 -135 0
-418 -73 0
-418 168 0
418 133 -149 135 73 -168 0
-419 119 0
-419 138 0
-419 94 0
-419 -168 0
-419 -161 0
419 -119 -138 -94 168 161 0
-420 32 0
-420 -115 0
-420 90 0
-420 -110 0
-420 20 0
420 -32 115 -90 110 -20 0
416 417 418 419 420 0
-421 -1 0
-421 -183 0
-421 -162 0
-421 -54 0
-421 -104 0
421 1 183 162 54 104 0
-422 29 0
-422 -93 0
-422 -180 0
-422 -150 0
-422 120 0
422 -29 93 180 150 -120 0
-423 152 0
-423 174 0
-423 77 0
-423 -176 0
-423 -81 0
423 -152 -174 -77 176 81 0
-424 67 0
-424 -87 0
-424 180 0
-424 -19 0
-424 137 0
424 -67 87 -180 19 -137 0
-425 42 0
-425 -165 0
-425 -162 0
-425 -4 0
-425 59 0
425 -42 165 162 4 -59 0
421 422 423 424 425 0
-426 59 0
-426 158 0
-426 -26 0
-426 -155 0
-426 53 0
426 -59 -158 26 155 -53 0
-427 -60 0
-427 -56 0
-427 -24 0
-427 171 0
-427 70 0
427 60 56 24 -171 -70 0
-428 118 0
-428 -143 0
-428 181 0
-428 15 0
-428 -77 0
428 -118 143 -181 -15 77 0
-429 -142 0
-429 50 0
-429 146 0
-429 -4 0
-429 -66 0
429 142 -50 -146 4 66 0
-430 -139 0
-430 -179 0
-430 -97 0
-430 -94 0
-430 149 0
430 139 179 97 94 -149 0
426 427 428 429 430 0
